[on. 05. april 15:33:24 +0200 2023]  ./input/alternate_g_np_100/100-2-4.gcc
Set parameter Username
Academic license - for non-commercial use only - expires 2024-03-28
Set parameter TimeLimit to value 1800
Set parameter PreCrush to value 1
Set parameter LazyConstraints to value 1
Gurobi Optimizer version 10.0.1 build v10.0.1rc0 (linux64)

CPU model: AMD Ryzen 9 5950X 16-Core Processor, instruction set [SSE2|AVX|AVX2]
Thread count: 16 physical cores, 32 logical processors, using up to 32 threads

Optimize a model with 101 rows, 200 columns and 400 nonzeros
Model fingerprint: 0x8cf4ee0f
Variable types: 0 continuous, 200 integer (200 binary)
Coefficient statistics:
  Matrix range     [1e+00, 1e+00]
  Objective range  [1e+00, 1e+02]
  Bounds range     [1e+00, 1e+00]
  RHS range        [1e+00, 1e+00]
Presolve time: 0.00s
Presolved: 101 rows, 200 columns, 400 nonzeros
Variable types: 0 continuous, 200 integer (200 binary)

Root relaxation: objective 4.435000e+03, 1 iterations, 0.00 seconds (0.00 work units)

    Nodes    |    Current Node    |     Objective Bounds      |     Work
 Expl Unexpl |  Obj  Depth IntInf | Incumbent    BestBd   Gap | It/Node Time

     0     0 4435.00000    0    -          - 4435.00000      -     -    0s
     0     0 4435.00000    0    -          - 4435.00000      -     -    0s
     0     0 4435.00000    0    -          - 4435.00000      -     -    0s
     0     0 4435.00000    0    -          - 4435.00000      -     -    0s
     0     0 4435.00000    0    -          - 4435.00000      -     -    0s
     0     0 4435.00000    0   12          - 4435.00000      -     -    0s
     0     0 4435.00000    0   18          - 4435.00000      -     -    0s
     0     0 4435.00000    0    -          - 4435.00000      -     -    0s
     0     0 4435.00000    0    -          - 4435.00000      -     -    0s
     0     0 4428.75000    0   26          - 4428.75000      -     -    0s
     0     0 4422.50000    0   19          - 4422.50000      -     -    0s
     0     0 4422.50000    0   11          - 4422.50000      -     -    0s
     0     2 4422.50000    0    9          - 4422.50000      -     -    0s
 25148 13317 3712.00000   39   35          - 4259.00000      -  12.0    5s
 42955 25767 infeasible   53               - 4254.00000      -  14.3   10s
 54605 33635 3939.00000   35   14          - 4248.10526      -  16.2   15s
 66315 39603 3729.00000   47   11          - 4234.00000      -  17.0   20s
*67428 38121              43    3760.0000000 4069.80000  8.24%  17.3   23s
H67430 36239                    3762.0000000 4069.80000  8.18%  17.3   23s
 68372 36334 3901.33333   31   30 3762.00000 4043.50000  7.48%  17.4   25s
 73528 36815 3854.61238   29  120 3762.00000 3987.00000  5.98%  17.6   30s
 78589 36424 3895.00000   30    - 3762.00000 3923.00000  4.28%  17.8   35s
 83835 35211     cutoff   34      3762.00000 3905.00000  3.80%  18.2   40s
*90595 27069              25    3856.0000000 3881.00000  0.65%  18.5   44s
 91054 26916     cutoff   33      3856.00000 3881.00000  0.65%  18.5   45s

Cutting planes:
  User: 826
  Lazy constraints: 1701

Explored 92497 nodes (1691355 simplex iterations) in 45.65 seconds (39.80 work units)
Thread count was 32 (of 32 available processors)

Solution count 3: 3856 3762 3760 

Optimal solution found (tolerance 1.00e-04)
Best objective 3.856000000000e+03, best bound 3.856000000000e+03, gap 0.0000%

User-callback calls 195151, time in user-callback 14.39 sec
Minimal separator inequalities added: 88083
Indegree inequalities added: 0
Passed solution check
[on. 05. april 15:34:10 +0200 2023]  done

